
Gurobi 10.0.3 (win64, C++) logging started Tue Feb  6 17:39:24 2024

Set parameter TokenServer to value "141.30.89.215"
Set parameter Threads to value 8
Set parameter LazyConstraints to value 1
Set parameter PreCrush to value 1
Set parameter TimeLimit to value 28800
Set parameter SolutionLimit to value 10000
Gurobi Optimizer version 10.0.3 build v10.0.3rc0 (win64)

CPU model: AMD EPYC 7513 32-Core Processor, instruction set [SSE2|AVX|AVX2]
Thread count: 16 physical cores, 16 logical processors, using up to 8 threads

Optimize a model with 232 rows, 441 columns and 1260 nonzeros
Model fingerprint: 0x4f75c7ba
Variable types: 0 continuous, 441 integer (441 binary)
Coefficient statistics:
  Matrix range     [1e+00, 1e+00]
  Objective range  [6e+00, 6e+01]
  Bounds range     [1e+00, 1e+00]
  RHS range        [1e+00, 4e+00]

User MIP start produced solution with objective 548.454 (0.00s)
Loaded user MIP start with objective 548.454

Presolve removed 1 rows and 21 columns
Presolve time: 0.00s
Presolved: 231 rows, 420 columns, 1200 nonzeros
Variable types: 0 continuous, 420 integer (420 binary)

Root relaxation: objective 2.923362e+02, 68 iterations, 0.00 seconds (0.00 work units)

    Nodes    |    Current Node    |     Objective Bounds      |     Work
 Expl Unexpl |  Obj  Depth IntInf | Incumbent    BestBd   Gap | It/Node Time

     0     0  292.33623    0    -  548.45388  292.33623  46.7%     -    0s
     0     0  307.94455    0    -  548.45388  307.94455  43.9%     -    0s
     0     0  319.25762    0    -  548.45388  319.25762  41.8%     -    0s
     0     0  320.93098    0    -  548.45388  320.93098  41.5%     -    0s
     0     0  321.37940    0   30  548.45388  321.37940  41.4%     -    0s
     0     0  335.46779    0   32  548.45388  335.46779  38.8%     -    0s
     0     0  344.54549    0    -  548.45388  344.54549  37.2%     -    0s
     0     0  345.09695    0   51  548.45388  345.09695  37.1%     -    0s
     0     0  346.98725    0    -  548.45388  346.98725  36.7%     -    0s
     0     0  347.89468    0   10  548.45388  347.89468  36.6%     -    0s
     0     0  348.30358    0   20  548.45388  348.30358  36.5%     -    0s
     0     2  348.80091    0   42  548.45388  348.80091  36.4%     -    0s
H    3     6                     358.4022742  348.97991  2.63%  29.3    0s

Cutting planes:
  User: 124
  Zero half: 1
  Lazy constraints: 78

Explored 440 nodes (6609 simplex iterations) in 3.11 seconds (0.24 work units)
Thread count was 8 (of 16 available processors)

Solution count 2: 358.402 548.454 

Optimal solution found (tolerance 1.00e-04)
Best objective 3.584022741504e+02, best bound 3.584022741504e+02, gap 0.0000%

User-callback calls 1193, time in user-callback 2.85 sec
### START EXACT APPROACH ###
ProblemVariant: 6
### START PREPROCESSING ###
## Start infeasible path procedure ## 
Deleted arcs: 0
Infeasible tail paths: 0
Infeasible 2-node combinations: 0
Deleted arcs: 0
Infeasible tail paths: 0
Infeasible 2-node combinations: 0
## Start start solution procedure ##
Start solution with 4 Vehicles and total costs 548.454 in 0.0043235 s.
### END PREPROCESSING ###
Route 0 0-1-6-19-11-20-5-0 : weight util 0.905882 | volume util 0.617800 | 
Route 1 0-2-8-17-0 : weight util 1.000000 | volume util 0.343778 | 
Route 2 0-7-9-3-15-4-0 : weight util 0.988235 | volume util 0.324600 | 
Route 3 0-14-13-16-18-10-12-0 : weight util 0.976471 | volume util 0.954556 | 
